
  32    4
  10   10   10   10

   0   0   0   0   0  13 2 3 6 9 10 11 12 26 27 28 29 30 31 
   1   1   0   1   1   3 24 8 4 
  10   0   1   4   3   4 25 21 18 7 
   8   3   9   3   0   2 17 5 
   4   4   4   8   0   5 20 19 18 16 13 
   7   3   0   3   3   2 18 7 
   5   3   5   2   0   4 19 17 16 14 
   1   3   2   0   4   4 22 20 16 15 
   5   0   5   3   7   2 17 14 
   8   4   0   6   5   2 16 14 
  10   4   4   0   4   2 23 21 
   2   4   2   0   3   2 18 17 
   7   5   3   2   0   1 14 
   5   8   0   4   1   1 15 
   1   0   2   3   7   1 32
   9   1   0   3   6   1 32
   6   5   4   0   4   1 32
  10   4   5   0   5   1 32
   3   7   4   0   4   1 32
   4   0   3   2   2   1 32
   6   5   5   0   5   1 32
   6   6   0   6   4   1 32
   1   0   3   8   3   1 32
  10   4   4   5   0   1 32
   9   0   2   3   6   1 32
   5   3   5   1   0   1 32
   7   6   5   4   0   1 32
   8   0   4   5   7   1 32
   4   0   5   6   2   1 32
   1   3   6   0   4   1 32
   8   2   0   6   2   1 32
   0   0   0   0   0   0 
